000 000 000 000 000 000 000 000 -99 -99 -99 -99 -99 000 -99 -99 -99 -99 -99 000 -99 -99 -99 -99 000 000 000 000 -99 002 000
-99 000 000 000 000 000 000 000 000 -99 -99 -99 -99 -99 000 000 -99 -99 -99 000 000 000 000 -99 000 000 000 000 -99 003 000
-99 000 000 000 000 000 000 000 000 000 -99 000 -99 -99 000 000 -99 -99 -99 -99 000 000 000 000 000 000 000 000 000 003 002
-99 000 000 000 000 -99 -99 -99 000 000 -99 000 000 -99 000 000 -99 -99 -99 -99 000 000 000 000 000 000 000 000 000 000 002
000 000 000 000 000 000 000 -99 000 000 000 000 000 000 000 000 000 -99 -99 -99 000 000 000 000 000 000 -99 000 -99 000 000
000 000 000 000 000 -99 000 000 000 000 -99 000 000 000 000 000 000 -99 -99 -99 000 000 000 000 000 000 000 -99 -99 000 -99
000 000 000 000 000 000 000 000 000 000 -99 -99 000 000 -99 000 000 000 -99 -99 000 000 000 000 000 000 000 -99 -99 -99 -99
-99 000 000 000 000 000 -99 000 000 000 -99 -99 -99 000 000 000 000 000 000 -99 000 000 000 000 000 000 000 -99 000 000 000
-99 000 000 000 000 000 -99 000 000 000 000 000 -99 000 000 -99 000 000 000 000 000 000 000 000 000 000 000 000 000 000 000
000 000 000 000 000 000 -99 -99 000 000 000 000 000 000 000 -99 -99 000 000 000 000 000 -99 -99 000 000 000 000 -99 000 000
000 000 000 000 000 000 -99 000 000 000 000 000 -99 -99 000 000 -99 000 000 000 000 000 -99 000 000 000 000 000 000 000 000
000 000 000 000 000 000 000 000 000 -99 -99 000 -99 -99 -99 000 000 000 000 000 000 000 -99 000 000 000 000 000 000 000 000
000 000 000 000 000 000 000 000 -99 -99 -99 000 -99 -99 -99 000 000 000 000 000 000 -99 -99 -99 000 000 000 000 000 000 000
000 000 000 000 000 000 000 000 -99 -99 -99 -99 -99 -99 -99 -99 000 000 000 000 -99 -99 000 000 000 000 000 000 000 000 000
000 -99 000 000 000 000 000 000 000 -99 -99 -99 -99 -99 -99 000 000 -99 -99 -99 -99 -99 000 000 000 000 000 000 000 000 000
000 -99 000 000 000 000 000 000 000 -99 -99 -99 -99 000 -99 -99 000 -99 -99 -99 -99 -99 000 000 000 000 000 000 000 000 000
000 -99 000 000 000 000 000 000 000 -99 -99 -99 -99 000 000 000 000 000 000 -99 -99 -99 000 000 000 -99 000 000 000 000 000
000 -99 000 -99 -99 -99 000 000 000 000 -99 -99 -99 000 000 000 000 000 -99 -99 -99 -99 000 000 -99 -99 -99 000 000 000 000
000 000 000 000 -99 -99 -99 000 000 000 -99 -99 -99 -99 -99 000 000 000 -99 -99 -99 000 000 000 -99 -99 000 000 000 000 -99
000 000 000 000 000 -99 000 000 000 -99 -99 -99 -99 -99 -99 000 000 000 -99 -99 -99 000 000 -99 -99 -99 000 -99 -99 000 -99
000 000 000 000 000 000 -99 000 000 -99 -99 -99 -99 -99 -99 000 000 000 -99 000 000 000 000 -99 -99 -99 000 -99 -99 -99 -99
000 000 000 000 000 000 000 000 000 -99 -99 -99 -99 -99 -99 000 000 000 000 000 000 000 000 -99 -99 000 000 -99 -99 -99 -99
000 000 000 000 000 000 000 000 000 -99 -99 -99 -99 000 000 000 000 000 000 000 000 000 000 -99 -99 000 -99 -99 -99 -99 -99
000 000 000 000 000 000 000 000 000 -99 -99 -99 000 000 000 000 000 -99 000 000 000 000 000 -99 -99 -99 -99 -99 -99 -99 -99
000 000 000 000 000 000 000 000 000 -99 -99 -99 000 000 000 000 000 000 000 000 000 000 -99 -99 -99 -99 -99 -99 -99 -99 -99
000 000 000 000 000 000 000 000 000 -99 -99 -99 -99 000 000 000 000 000 000 -99 -99 -99 -99 -99 -99 -99 -99 -99 -99 -99 000
000 -99 000 000 000 000 000 000 000 -99 -99 -99 -99 000 000 000 000 000 000 -99 -99 -99 -99 -99 -99 -99 -99 -99 -99 -99 000
000 000 000 000 000 000 000 000 -99 -99 -99 -99 -99 -99 000 000 000 000 000 -99 -99 -99 -99 -99 -99 -99 -99 -99 -99 -99 000
000 000 000 000 000 000 000 000 000 -99 -99 -99 -99 000 000 000 000 000 -99 -99 -99 -99 -99 -99 -99 -99 -99 -99 -99 -99 000
000 000 000 -99 000 000 000 000 000 -99 -99 -99 -99 000 000 000 000 000 -99 000 -99 000 -99 -99 -99 -99 -99 -99 -99 -99 -99
000 000 000 000 000 000 000 000 000 000 -99 -99 -99 000 000 000 000 000 000 000 -99 -99 -99 000 -99 000 000 -99 -99 -99 000
-99 000 000 000 000 000 000 000 000 -99 -99 -99 -99 000 000 000 000 000 000 -99 000 000 000 000 000 000 000 -99 000 -99 000
-99 000 000 000 000 000 000 000 000 000 -99 -99 -99 000 000 000 000 000 000 -99 -99 000 000 000 000 000 000 000 000 -99 000
-99 000 000 000 000 000 000 000 000 -99 -99 -99 -99 000 000 000 000 000 000 -99 000 000 000 000 000 000 000 000 000 000 000
-99 000 000 000 000 000 000 000 -99 -99 -99 000 -99 000 000 000 000 000 -99 000 000 000 000 000 000 000 000 000 000 000 000
000 000 000 000 000 000 000 000 000 000 -99 000 -99 -99 000 000 000 000 -99 000 000 000 000 000 000 000 000 000 000 000 -99
000 000 000 000 000 000 -99 000 000 000 -99 -99 -99 -99 000 000 000 000 000 000 000 000 000 000 000 000 000 000 -99 000 000
000 000 -99 000 000 -99 -99 000 000 000 -99 -99 -99 000 000 000 000 000 -99 000 000 000 000 000 000 000 000 -99 000 000 000
000 000 000 000 000 -99 -99 000 -99 -99 -99 -99 000 000 000 000 000 -99 -99 -99 000 000 000 000 000 000 000 -99 000 -99 -99
000 000 000 000 000 -99 -99 000 -99 -99 -99 000 000 000 000 000 000 -99 -99 -99 000 -99 000 000 -99 000 000 -99 -99 -99 -99
000 000 000 000 000 -99 -99 -99 -99 -99 -99 000 000 000 000 000 -99 -99 -99 000 000 -99 000 000 000 000 000 -99 -99 -99 000
000 000 -99 -99 -99 -99 -99 -99 -99 -99 000 000 000 000 000 000 -99 -99 -99 000 000 000 000 000 000 000 -99 -99 -99 -99 000
000 -99 -99 -99 -99 -99 -99 000 -99 -99 000 000 000 000 -99 000 000 000 -99 000 000 000 000 000 000 000 -99 -99 000 -99 -99
000 -99 -99 -99 -99 -99 000 000 -99 -99 -99 000 000 000 000 000 000 000 000 000 000 000 000 -99 000 000 -99 000 000 -99 -99
000 -99 -99 -99 -99 -99 000 000 -99 -99 -99 000 000 -99 000 000 000 -99 000 000 000 000 -99 000 000 -99 000 000 000 -99 -99
-99 -99 -99 -99 -99 -99 000 000 -99 -99 000 000 000 -99 000 000 000 000 000 000 000 -99 -99 000 000 000 000 000 -99 -99 -99
-99 -99 -99 -99 -99 -99 000 -99 -99 -99 000 000 000 -99 000 -99 -99 000 000 000 -99 -99 000 000 -99 000 000 000 -99 000 -99
-99 -99 -99 -99 -99 -99 -99 -99 -99 -99 -99 -99 -99 -99 -99 -99 -99 000 000 000 000 000 000 000 -99 -99 000 000 000 000 -99
-99 -99 -99 -99 -99 -99 -99 -99 -99 -99 -99 -99 -99 -99 -99 -99 -99 000 000 -99 -99 000 000 -99 -99 000 000 000 000 000 -99
-99 -99 -99 -99 -99 -99 -99 -99 -99 -99 -99 -99 -99 -99 -99 -99 000 000 000 -99 -99 000 000 -99 000 -99 000 000 000 000 -99
-99 -99 -99 -99 -99 -99 -99 -99 -99 -99 -99 -99 -99 -99 -99 -99 000 000 -99 -99 -99 -99 -99 -99 000 000 000 000 000 000 -99
-99 -99 -99 -99 -99 -99 -99 -99 -99 -99 -99 -99 -99 -99 -99 -99 -99 000 000 000 -99 -99 -99 -99 000 000 -99 -99 -99 -99 -99
-99 -99 -99 -99 -99 -99 -99 -99 -99 -99 -99 -99 -99 -99 -99 -99 -99 000 000 -99 -99 -99 -99 000 000 -99 -99 -99 -99 -99 -99
-99 -99 -99 -99 -99 -99 -99 -99 -99 -99 -99 -99 -99 -99 -99 -99 -99 000 000 -99 -99 -99 -99 000 -99 -99 -99 -99 -99 -99 -99
-99 -99 -99 -99 -99 -99 -99 -99 -99 -99 -99 -99 -99 -99 -99 000 000 000 000 -99 -99 -99 -99 -99 -99 000 -99 -99 -99 -99 -99
